min: c;

c = 3.751788944913 * u5_t4_h2 + 3.751788944913 * u5_t7_h2 + 3.15698825916387 * u5_t4_h3 + 3.15698825916387 * u5_t7_h3 + 2.8830762851058 * u5_t1_h4 + 2.8830762851058 * u5_t3_h4 + 2.8830762851058 * u5_t4_h4 + 2.8830762851058 * u5_t7_h4 + 3.97768552631738 * u5_t1_h5 + 3.97768552631738 * u5_t3_h5 + 3.97768552631738 * u5_t4_h5 + 3.97768552631738 * u5_t7_h5 + 3.71885657003821 * u5_t1_h6 + 3.71885657003821 * u5_t3_h6 + 3.71885657003821 * u5_t4_h6 + 3.71885657003821 * u5_t6_h6 + 3.71885657003821 * u5_t7_h6 + 4.16714535837767 * u5_t1_h7 + 4.16714535837767 * u5_t3_h7 + 4.16714535837767 * u5_t4_h7 + 4.16714535837767 * u5_t6_h7 + 5.09686509690236 * u5_t1_h8 + 5.09686509690236 * u5_t3_h8 + 5.09686509690236 * u5_t4_h8 + 5.09686509690236 * u5_t6_h8 + 4.65936485143157 * u5_t1_h9 + 4.65936485143157 * u5_t3_h9 + 4.65936485143157 * u5_t4_h9 + 4.65936485143157 * u5_t6_h9 + 5.55303568355508 * u5_t1_h10 + 5.55303568355508 * u5_t3_h10 + 5.55303568355508 * u5_t4_h10 + 5.55303568355508 * u5_t6_h10 + 4.22371664402156 * u5_t1_h11 + 4.22371664402156 * u5_t3_h11 + 4.22371664402156 * u5_t4_h11 + 4.22371664402156 * u5_t6_h11 + 6.67899675989898 * u5_t1_h12 + 6.67899675989898 * u5_t3_h12 + 6.67899675989898 * u5_t4_h12 + 6.67899675989898 * u5_t6_h12 + 4.86309406837676 * u5_t1_h13 + 4.86309406837676 * u5_t3_h13 + 4.86309406837676 * u5_t4_h13 + 4.86309406837676 * u5_t6_h13 + 4.86309406837676 * u5_t8_h13 + 5.55347252487899 * u5_t1_h14 + 5.55347252487899 * u5_t3_h14 + 5.55347252487899 * u5_t4_h14 + 5.55347252487899 * u5_t6_h14 + 5.55347252487899 * u5_t8_h14 + 5.86908378361079 * u5_t1_h15 + 5.86908378361079 * u5_t3_h15 + 5.86908378361079 * u5_t4_h15 + 5.86908378361079 * u5_t6_h15 + 5.86908378361079 * u5_t8_h15 + 5.86908378361079 * u5_t9_h15 + 6.36856869336549 * u5_t1_h16 + 6.36856869336549 * u5_t3_h16 + 6.36856869336549 * u5_t4_h16 + 6.36856869336549 * u5_t5_h16 + 6.36856869336549 * u5_t6_h16 + 6.36856869336549 * u5_t8_h16 + 6.36856869336549 * u5_t9_h16 + 6.05218096648113 * u5_t1_h17 + 6.05218096648113 * u5_t5_h17 + 6.05218096648113 * u5_t6_h17 + 6.05218096648113 * u5_t8_h17 + 6.05218096648113 * u5_t9_h17 + 6.05218096648113 * u5_t10_h17 + 6.4531438173419 * u5_t1_h18 + 6.4531438173419 * u5_t2_h18 + 6.4531438173419 * u5_t5_h18 + 6.4531438173419 * u5_t6_h18 + 6.4531438173419 * u5_t9_h18 + 6.4531438173419 * u5_t10_h18 + 5.16982358744511 * u5_t1_h19 + 5.16982358744511 * u5_t2_h19 + 5.16982358744511 * u5_t5_h19 + 5.16982358744511 * u5_t9_h19 + 5.16982358744511 * u5_t10_h19 + 5.45246674180863 * u5_t1_h20 + 5.45246674180863 * u5_t2_h20 + 5.45246674180863 * u5_t5_h20 + 5.45246674180863 * u5_t9_h20 + 5.45246674180863 * u5_t10_h20 + 4.83403101941733 * u5_t2_h21 + 4.83403101941733 * u5_t5_h21 + 4.83403101941733 * u5_t9_h21 + 4.83403101941733 * u5_t10_h21 + 5.46830339549282 * u5_t2_h22 + 5.46830339549282 * u5_t5_h22 + 5.46830339549282 * u5_t9_h22 + 5.46830339549282 * u5_t10_h22 + 5.00490505123966 * u5_t5_h23 + 5.00490505123966 * u5_t9_h23 + 5.00490505123966 * u5_t10_h23;
0 <= u5_t1_h4 <= 1;
0 <= u5_t1_h5 <= 1;
0 <= u5_t1_h6 <= 1;
0 <= u5_t1_h7 <= 1;
0 <= u5_t1_h8 <= 1;
0 <= u5_t1_h9 <= 1;
0 <= u5_t1_h10 <= 1;
0 <= u5_t1_h11 <= 1;
0 <= u5_t1_h12 <= 1;
0 <= u5_t1_h13 <= 1;
0 <= u5_t1_h14 <= 1;
0 <= u5_t1_h15 <= 1;
0 <= u5_t1_h16 <= 1;
0 <= u5_t1_h17 <= 1;
0 <= u5_t1_h18 <= 1;
0 <= u5_t1_h19 <= 1;
0 <= u5_t1_h20 <= 1;
u5_t1_h4 + u5_t1_h5 + u5_t1_h6 + u5_t1_h7 + u5_t1_h8 + u5_t1_h9 + u5_t1_h10 + u5_t1_h11 + u5_t1_h12 + u5_t1_h13 + u5_t1_h14 + u5_t1_h15 + u5_t1_h16 + u5_t1_h17 + u5_t1_h18 + u5_t1_h19 + u5_t1_h20 = 1;
0 <= u5_t2_h18 <= 1;
0 <= u5_t2_h19 <= 1;
0 <= u5_t2_h20 <= 1;
0 <= u5_t2_h21 <= 1;
0 <= u5_t2_h22 <= 1;
u5_t2_h18 + u5_t2_h19 + u5_t2_h20 + u5_t2_h21 + u5_t2_h22 = 3;
0 <= u5_t3_h4 <= 1;
0 <= u5_t3_h5 <= 1;
0 <= u5_t3_h6 <= 1;
0 <= u5_t3_h7 <= 1;
0 <= u5_t3_h8 <= 1;
0 <= u5_t3_h9 <= 1;
0 <= u5_t3_h10 <= 1;
0 <= u5_t3_h11 <= 1;
0 <= u5_t3_h12 <= 1;
0 <= u5_t3_h13 <= 1;
0 <= u5_t3_h14 <= 1;
0 <= u5_t3_h15 <= 1;
0 <= u5_t3_h16 <= 1;
u5_t3_h4 + u5_t3_h5 + u5_t3_h6 + u5_t3_h7 + u5_t3_h8 + u5_t3_h9 + u5_t3_h10 + u5_t3_h11 + u5_t3_h12 + u5_t3_h13 + u5_t3_h14 + u5_t3_h15 + u5_t3_h16 = 1;
0 <= u5_t4_h2 <= 1;
0 <= u5_t4_h3 <= 1;
0 <= u5_t4_h4 <= 1;
0 <= u5_t4_h5 <= 1;
0 <= u5_t4_h6 <= 1;
0 <= u5_t4_h7 <= 1;
0 <= u5_t4_h8 <= 1;
0 <= u5_t4_h9 <= 1;
0 <= u5_t4_h10 <= 1;
0 <= u5_t4_h11 <= 1;
0 <= u5_t4_h12 <= 1;
0 <= u5_t4_h13 <= 1;
0 <= u5_t4_h14 <= 1;
0 <= u5_t4_h15 <= 1;
0 <= u5_t4_h16 <= 1;
u5_t4_h2 + u5_t4_h3 + u5_t4_h4 + u5_t4_h5 + u5_t4_h6 + u5_t4_h7 + u5_t4_h8 + u5_t4_h9 + u5_t4_h10 + u5_t4_h11 + u5_t4_h12 + u5_t4_h13 + u5_t4_h14 + u5_t4_h15 + u5_t4_h16 = 3;
0 <= u5_t5_h16 <= 1;
0 <= u5_t5_h17 <= 1;
0 <= u5_t5_h18 <= 1;
0 <= u5_t5_h19 <= 1;
0 <= u5_t5_h20 <= 1;
0 <= u5_t5_h21 <= 1;
0 <= u5_t5_h22 <= 1;
0 <= u5_t5_h23 <= 1;
u5_t5_h16 + u5_t5_h17 + u5_t5_h18 + u5_t5_h19 + u5_t5_h20 + u5_t5_h21 + u5_t5_h22 + u5_t5_h23 = 2;
0 <= u5_t6_h6 <= 1;
0 <= u5_t6_h7 <= 1;
0 <= u5_t6_h8 <= 1;
0 <= u5_t6_h9 <= 1;
0 <= u5_t6_h10 <= 1;
0 <= u5_t6_h11 <= 1;
0 <= u5_t6_h12 <= 1;
0 <= u5_t6_h13 <= 1;
0 <= u5_t6_h14 <= 1;
0 <= u5_t6_h15 <= 1;
0 <= u5_t6_h16 <= 1;
0 <= u5_t6_h17 <= 1;
0 <= u5_t6_h18 <= 1;
u5_t6_h6 + u5_t6_h7 + u5_t6_h8 + u5_t6_h9 + u5_t6_h10 + u5_t6_h11 + u5_t6_h12 + u5_t6_h13 + u5_t6_h14 + u5_t6_h15 + u5_t6_h16 + u5_t6_h17 + u5_t6_h18 = 2;
0 <= u5_t7_h2 <= 1;
0 <= u5_t7_h3 <= 1;
0 <= u5_t7_h4 <= 1;
0 <= u5_t7_h5 <= 1;
0 <= u5_t7_h6 <= 1;
u5_t7_h2 + u5_t7_h3 + u5_t7_h4 + u5_t7_h5 + u5_t7_h6 = 1;
0 <= u5_t8_h13 <= 1;
0 <= u5_t8_h14 <= 1;
0 <= u5_t8_h15 <= 1;
0 <= u5_t8_h16 <= 1;
0 <= u5_t8_h17 <= 1;
u5_t8_h13 + u5_t8_h14 + u5_t8_h15 + u5_t8_h16 + u5_t8_h17 = 3;
0 <= u5_t9_h15 <= 1;
0 <= u5_t9_h16 <= 1;
0 <= u5_t9_h17 <= 1;
0 <= u5_t9_h18 <= 1;
0 <= u5_t9_h19 <= 1;
0 <= u5_t9_h20 <= 1;
0 <= u5_t9_h21 <= 1;
0 <= u5_t9_h22 <= 1;
0 <= u5_t9_h23 <= 1;
u5_t9_h15 + u5_t9_h16 + u5_t9_h17 + u5_t9_h18 + u5_t9_h19 + u5_t9_h20 + u5_t9_h21 + u5_t9_h22 + u5_t9_h23 = 1;
0 <= u5_t10_h17 <= 1;
0 <= u5_t10_h18 <= 1;
0 <= u5_t10_h19 <= 1;
0 <= u5_t10_h20 <= 1;
0 <= u5_t10_h21 <= 1;
0 <= u5_t10_h22 <= 1;
0 <= u5_t10_h23 <= 1;
u5_t10_h17 + u5_t10_h18 + u5_t10_h19 + u5_t10_h20 + u5_t10_h21 + u5_t10_h22 + u5_t10_h23 = 1;
